0000000000000000
0000000000000000
0000000000000000
0000000000111000
0000000000111000
0000000000001000
0000000000001000
0000000000001000
0000000000001000
0000000000001000
0000000000001100
0000000000101100
0000000001100100
0000000000000000
0000000000000000
0000000000000000
